MLT06
Position Depot: Random
Horizon for Depot: Large
Position of customers: Mixt
Distribution of the demand: Medium
Width of time windows: Tight
Distribution of the service: Large

VEHICLE 
NUMBER 	 CAPACITY 
 12 	 	 108 
 
CUSTOMER
CUST NO. 	 XCOORD.  	 YCOORD. 	 DEMAND 	 READY TIME 	 DUE DATE 	 SERVICE TIME 
 0 	 	 938 	 	 896 	 	 0 	 	 0 	 	 4522 	 	 0 
  1 	 	 220 	 	 351 	 	 3 	 	 903 	 	 1012 	 	 121 
  2 	 	 653 	 	 537 	 	 10 	 	 393 	 	 504 	 	 123 
  3 	 	 890 	 	 461 	 	 61 	 	 422 	 	 481 	 	 100 
  4 	 	 218 	 	 501 	 	 4 	 	 703 	 	 903 	 	 196 
  5 	 	 722 	 	 972 	 	 1 	 	 3533 	 	 3722 	 	 117 
  6 	 	 750 	 	 521 	 	 6 	 	 3729 	 	 3798 	 	 160 
  7 	 	 306 	 	 323 	 	 2 	 	 3525 	 	 3639 	 	 196 
  8 	 	 341 	 	 343 	 	 10 	 	 2401 	 	 2596 	 	 141 
  9 	 	 766 	 	 928 	 	 5 	 	 4203 	 	 4339 	 	 125 
  10 	 	 188 	 	 276 	 	 1 	 	 1933 	 	 1994 	 	 135 
  11 	 	 950 	 	 278 	 	 8 	 	 867 	 	 1033 	 	 112 
  12 	 	 906 	 	 774 	 	 71 	 	 799 	 	 873 	 	 139 
  13 	 	 863 	 	 502 	 	 2 	 	 1529 	 	 1581 	 	 149 
  14 	 	 658 	 	 494 	 	 1 	 	 594 	 	 775 	 	 166 
  15 	 	 876 	 	 504 	 	 8 	 	 4108 	 	 4196 	 	 192 
  16 	 	 174 	 	 552 	 	 7 	 	 779 	 	 921 	 	 138 
  17 	 	 883 	 	 554 	 	 10 	 	 2475 	 	 2571 	 	 114 
  18 	 	 218 	 	 482 	 	 65 	 	 1949 	 	 2006 	 	 115 
  19 	 	 656 	 	 478 	 	 9 	 	 3178 	 	 3374 	 	 171 
  20 	 	 670 	 	 963 	 	 9 	 	 1997 	 	 2121 	 	 187 
  21 	 	 714 	 	 560 	 	 3 	 	 311 	 	 444 	 	 153 
  22 	 	 900 	 	 456 	 	 99 	 	 749 	 	 907 	 	 119 
  23 	 	 895 	 	 469 	 	 9 	 	 1760 	 	 1817 	 	 170 
  24 	 	 291 	 	 425 	 	 9 	 	 3661 	 	 3726 	 	 198 
  25 	 	 778 	 	 578 	 	 2 	 	 3761 	 	 3875 	 	 104 
  26 	 	 493 	 	 262 	 	 3 	 	 988 	 	 1058 	 	 199 
  27 	 	 512 	 	 801 	 	 3 	 	 2038 	 	 2219 	 	 156 
  28 	 	 427 	 	 51 	 	 8 	 	 3020 	 	 3134 	 	 102 
  29 	 	 976 	 	 902 	 	 3 	 	 88 	 	 178 	 	 111 
  30 	 	 95 	 	 648 	 	 9 	 	 1314 	 	 1483 	 	 158 
  31 	 	 551 	 	 473 	 	 3 	 	 577 	 	 630 	 	 181 
  32 	 	 215 	 	 403 	 	 5 	 	 896 	 	 962 	 	 112 
  33 	 	 449 	 	 1 	 	 3 	 	 2436 	 	 2629 	 	 129 
  34 	 	 829 	 	 564 	 	 54 	 	 3133 	 	 3204 	 	 187 
  35 	 	 299 	 	 217 	 	 2 	 	 1217 	 	 1275 	 	 175 
  36 	 	 324 	 	 364 	 	 60 	 	 4096 	 	 4250 	 	 196 
  37 	 	 324 	 	 50 	 	 1 	 	 1012 	 	 1149 	 	 154 
  38 	 	 101 	 	 683 	 	 8 	 	 4419 	 	 4501 	 	 158 
  39 	 	 716 	 	 234 	 	 66 	 	 3146 	 	 3228 	 	 168 
  40 	 	 285 	 	 949 	 	 74 	 	 3160 	 	 3212 	 	 103 
  41 	 	 195 	 	 366 	 	 1 	 	 3327 	 	 3516 	 	 175 
  42 	 	 877 	 	 258 	 	 4 	 	 713 	 	 785 	 	 185 
  43 	 	 15 	 	 114 	 	 5 	 	 2797 	 	 2892 	 	 124 
  44 	 	 446 	 	 333 	 	 2 	 	 1429 	 	 1511 	 	 136 
  45 	 	 981 	 	 982 	 	 6 	 	 1628 	 	 1819 	 	 130 
  46 	 	 156 	 	 806 	 	 4 	 	 3544 	 	 3634 	 	 190 
  47 	 	 560 	 	 919 	 	 99 	 	 4086 	 	 4264 	 	 109 
  48 	 	 78 	 	 131 	 	 55 	 	 3820 	 	 3893 	 	 117 
  49 	 	 156 	 	 383 	 	 55 	 	 1751 	 	 1811 	 	 160 
  50 	 	 476 	 	 870 	 	 8 	 	 2302 	 	 2484 	 	 145 
 